     Program PWSCF v.6.0 (svn rev. 13079) starts on  6Jan2017 at 19: 1: 1

     Current dimensions of program PWSCF are:
     Max number of different atomic species (ntypx) = 10
     Max number of k-points (npk) =  40000
     Max angular momentum in pseudopotentials (lmaxx) =  3
               file B.pbe-n-kjpaw_psl.0.1.UPF: wavefunction(s)  2P renormalized
               file O.pbe-n-kjpaw_psl.0.1.UPF: wavefunction(s)  2P renormalized

     gamma-point specific algorithms are used

     Subspace diagonalization in iterative solution of the eigenvalue problem:
     a serial algorithm will be used

     bravais-lattice index     =            8
     lattice parameter (alat)  =      16.1343  a.u.
     unit-cell volume          =   13096.4292 (a.u.)^3
     number of atoms/cell      =          200
     number of atomic types    =            6
     number of electrons       =       648.00
     number of Kohn-Sham states=          324
     kinetic-energy cutoff     =      24.0000  Ry
     charge density cutoff     =     144.0000  Ry
     convergence threshold     =      1.0E-07
     mixing beta               =       0.7000
     number of iterations used =            8  plain     mixing
     Exchange-correlation      =  SLA  PW   PBX  PBC ( 1  4  3  4 0 0)
     nstep                     =            1

     celldm(1)=  16.134293  celldm(2)=   1.721266  celldm(3)=   1.811570
     celldm(4)=   0.000000  celldm(5)=   0.000000  celldm(6)=   0.000000

     crystal axes: (cart. coord. in units of alat)
               a(1) = (   1.000000   0.000000   0.000000 )
               a(2) = (   0.000000   1.721266   0.000000 )
               a(3) = (   0.000000   0.000000   1.811570 )

     reciprocal axes: (cart. coord. in units 2 pi/alat)
               b(1) = (  1.000000  0.000000  0.000000 )
               b(2) = (  0.000000  0.580968  0.000000 )
               b(3) = (  0.000000  0.000000  0.552007 )

     PseudoPot. # 1 for  B read from file:
     /home/andrius/SSSP_acc_PBE/B.pbe-n-kjpaw_psl.0.1.UPF
     MD5 check sum: b4345a612e0782cca08559f453f3313f
     Pseudo is Projector augmented-wave + core cor, Zval =  3.0
     Generated using "atomic" code by A. Dal Corso  v.5.0.99 svn rev. 10869
     Shape of augmentation charge: BESSEL
     Using radial grid of 1059 points,  4 beta functions with:
                l(1) =   0
                l(2) =   0
                l(3) =   1
                l(4) =   1
     Q(r) pseudized with 0 coefficients

     PseudoPot. # 2 for C  read from file:
     /home/andrius/SSSP_acc_PBE/C_pbe_v1.2.uspp.F.UPF
     MD5 check sum: d1aef80898a10debaa0f26306b886e00
     Pseudo is Ultrasoft + core correction, Zval =  4.0
     Generated by new atomic code, or converted to UPF format
     Using radial grid of  721 points,  4 beta functions with:
                l(1) =   0
                l(2) =   0
                l(3) =   1
                l(4) =   1
     Q(r) pseudized with  8 coefficients,  rinner =    1.100   1.100   1.100

     PseudoPot. # 3 for F  read from file:
     /home/andrius/SSSP_acc_PBE/f_pbe_v1.4.uspp.F.UPF
     MD5 check sum: 4c38b6a325caf53ec0e86aed9459de46
     Pseudo is Ultrasoft, Zval =  7.0
     Generated by new atomic code, or converted to UPF format
     Using radial grid of  799 points,  4 beta functions with:
                l(1) =   0
                l(2) =   0
                l(3) =   1
                l(4) =   1
     Q(r) pseudized with  8 coefficients,  rinner =    0.950   0.950   0.950

     PseudoPot. # 4 for  H read from file:
     /home/andrius/SSSP_acc_PBE/H.pbe-rrkjus_psl.0.1.UPF
     MD5 check sum: 36633979392af7100e6f6632747262d3
     Pseudo is Ultrasoft, Zval =  1.0
     Generated using "atomic" code by A. Dal Corso  v.5.0.99 svn rev. 10869
     Using radial grid of  929 points,  2 beta functions with:
                l(1) =   0
                l(2) =   0
     Q(r) pseudized with 0 coefficients

     PseudoPot. # 5 for  N read from file:
     /home/andrius/SSSP_acc_PBE/N.pbe.theos.UPF
     MD5 check sum: 1fde47ee573fe9ed3106b9b4217eb757
     Pseudo is Ultrasoft + core correction, Zval =  5.0
     Generated using "atomic" code by A. Dal Corso  v.5.1
     Using radial grid of 1085 points,  4 beta functions with:
                l(1) =   0
                l(2) =   0
                l(3) =   1
                l(4) =   1
     Q(r) pseudized with 0 coefficients

     PseudoPot. # 6 for  O read from file:
     /home/andrius/SSSP_acc_PBE/O.pbe-n-kjpaw_psl.0.1.UPF
     MD5 check sum: 3f94a2996a3169367d6eb21d9b593f20
     Pseudo is Projector augmented-wave + core cor, Zval =  6.0
     Generated using "atomic" code by A. Dal Corso  v.5.0.99 svn rev. 10869
     Shape of augmentation charge: BESSEL
     Using radial grid of 1095 points,  4 beta functions with:
                l(1) =   0
                l(2) =   0
                l(3) =   1
                l(4) =   1
     Q(r) pseudized with 0 coefficients

     atomic species   valence    mass     pseudopotential
        B              3.00     1.00000      B( 1.00)
        C              4.00     1.00000     C ( 1.00)
        F              7.00     1.00000     F ( 1.00)
        H              1.00     1.00000      H( 1.00)
        N              5.00     1.00000      N( 1.00)
        O              6.00     1.00000      O( 1.00)

      8 Sym. Ops., with inversion, found ( 6 have fractional translation)

   Cartesian axes

     site n.     atom                  positions (alat units)
         1           F   tau(   1) = (   0.1130500   0.3182966   0.0132426  )
         2           F   tau(   2) = (   0.3869500   1.4029698   0.9190274  )
         3           F   tau(   3) = (   0.8869500   1.1789298   0.8925422  )
         4           F   tau(   4) = (   0.6130500   0.5423366   1.7983270  )
         5           F   tau(   5) = (   0.8869500   1.4029698   1.7983270  )
         6           F   tau(   6) = (   0.6130500   0.3182966   0.8925422  )
         7           F   tau(   7) = (   0.1130500   0.5423366   0.9190274  )
         8           F   tau(   8) = (   0.3869500   1.1789298   0.0132426  )
         9           F   tau(   9) = (   0.9978100   0.2563310   1.5941631  )
        10           F   tau(  10) = (   0.5021900   1.4649354   0.6883783  )
        11           F   tau(  11) = (   0.0021900   1.1169642   1.1231913  )
        12           F   tau(  12) = (   0.4978100   0.6043022   0.2174065  )
        13           F   tau(  13) = (   0.0021900   1.4649354   0.2174065  )
        14           F   tau(  14) = (   0.4978100   0.2563310   1.1231913  )
        15           F   tau(  15) = (   0.9978100   0.6043022   0.6883783  )
        16           F   tau(  16) = (   0.5021900   1.1169642   1.5941631  )
        17           N   tau(  17) = (   0.3649000   0.2615464   1.5689642  )
        18           N   tau(  18) = (   0.1351000   1.4597199   0.6631794  )
        19           N   tau(  19) = (   0.6351000   1.1221796   1.1483902  )
        20           N   tau(  20) = (   0.8649000   0.5990868   0.2426054  )
        21           N   tau(  21) = (   0.6351000   1.4597199   0.2426054  )
        22           N   tau(  22) = (   0.8649000   0.2615464   1.1483902  )
        23           N   tau(  23) = (   0.3649000   0.5990868   0.6631794  )
        24           N   tau(  24) = (   0.1351000   1.1221796   1.5689642  )
        25           N   tau(  25) = (   0.2068400   0.0805036   1.6908466  )
        26           N   tau(  26) = (   0.2931600   1.6407627   0.7850618  )
        27           N   tau(  27) = (   0.7931600   0.9411368   1.0265078  )
        28           N   tau(  28) = (   0.7068400   0.7801295   0.1207230  )
        29           N   tau(  29) = (   0.7931600   1.6407627   0.1207230  )
        30           N   tau(  30) = (   0.7068400   0.0805036   1.0265078  )
        31           N   tau(  31) = (   0.2068400   0.7801295   0.7850618  )
        32           N   tau(  32) = (   0.2931600   0.9411368   1.6908466  )
        33           N   tau(  33) = (   0.0353900   1.6468904   0.0003985  )
        34           N   tau(  34) = (   0.4646100   0.0743759   0.9061833  )
        35           N   tau(  35) = (   0.9646100   0.7862573   0.9053862  )
        36           N   tau(  36) = (   0.5353900   0.9350091   1.8111710  )
        37           N   tau(  37) = (   0.9646100   0.0743759   1.8111710  )
        38           N   tau(  38) = (   0.5353900   1.6468904   0.9053862  )
        39           N   tau(  39) = (   0.0353900   0.9350091   0.9061833  )
        40           N   tau(  40) = (   0.4646100   0.7862573   0.0003985  )
        41           B   tau(  41) = (   0.0693000   0.1990817   1.7254657  )
        42           B   tau(  42) = (   0.4307000   1.5221847   0.8196809  )
        43           B   tau(  43) = (   0.9307000   1.0597148   0.9918887  )
        44           B   tau(  44) = (   0.5693000   0.6615515   0.0861039  )
        45           B   tau(  45) = (   0.9307000   1.5221847   0.0861039  )
        46           B   tau(  46) = (   0.5693000   0.1990817   0.9918887  )
        47           B   tau(  47) = (   0.0693000   0.6615515   0.8196809  )
        48           B   tau(  48) = (   0.4307000   1.0597148   1.7254657  )
        49           C   tau(  49) = (   0.5141000   0.4599396   1.4350349  )
        50           C   tau(  50) = (   0.9859000   1.2613268   0.5292501  )
        51           C   tau(  51) = (   0.4859000   1.3205728   1.2823195  )
        52           C   tau(  52) = (   0.0141000   0.4006936   0.3765347  )
        53           C   tau(  53) = (   0.4859000   1.2613268   0.3765347  )
        54           C   tau(  54) = (   0.0141000   0.4599396   1.2823195  )
        55           C   tau(  55) = (   0.5141000   0.4006936   0.5292501  )
        56           C   tau(  56) = (   0.9859000   1.3205728   1.4350349  )
        57           H   tau(  57) = (   0.4310000   0.4792006   1.3617569  )
        58           H   tau(  58) = (   0.0690000   1.2420658   0.4559721  )
        59           H   tau(  59) = (   0.5690000   1.3398337   1.3555975  )
        60           H   tau(  60) = (   0.9310000   0.3814326   0.4498127  )
[...]
       186           C   tau( 186) = (   0.3253600   0.0660450   0.8370720  )
       187           C   tau( 187) = (   0.8253600   0.7945882   0.9744976  )
       188           C   tau( 188) = (   0.6746400   0.9266782   0.0687128  )
       189           C   tau( 189) = (   0.8253600   0.0660450   0.0687128  )
       190           C   tau( 190) = (   0.6746400   1.6552214   0.9744976  )
       191           C   tau( 191) = (   0.1746400   0.9266782   0.8370720  )
       192           C   tau( 192) = (   0.3253600   0.7945882   1.7428568  )
       193           C   tau( 193) = (   0.3484300   0.1128806   1.6188005  )
       194           C   tau( 194) = (   0.1515700   1.6083857   0.7130157  )
       195           C   tau( 195) = (   0.6515700   0.9735138   1.0985539  )
       196           C   tau( 196) = (   0.8484300   0.7477525   0.1927691  )
       197           C   tau( 197) = (   0.6515700   1.6083857   0.1927691  )
       198           C   tau( 198) = (   0.8484300   0.1128806   1.0985539  )
       199           C   tau( 199) = (   0.3484300   0.7477525   0.7130157  )
       200           C   tau( 200) = (   0.1515700   0.9735138   1.6188005  )

     number of k points=     1
                       cart. coord. in units 2pi/alat
        k(    1) = (   0.0000000   0.0000000   0.0000000), wk =   2.0000000

     Check: negative/imaginary core charge=   -0.000010    0.000000

     Initial potential from superposition of free atoms

     starting charge  647.99362, renormalised to  648.00000
     Starting wfc are  584 randomized atomic wfcs
     Checking if some PAW data can be deallocated...

     Self-consistent Calculation

     iteration #  1     ecut=    24.00 Ry     beta=0.70
     Davidson diagonalization with overlap
     ethr =  1.00E-02,  avg # of iterations =  2.0

     total energy              =   -2347.48146288 Ry
     Harris-Foulkes estimate   =   -2363.89739373 Ry
     estimated scf accuracy    <      26.17282273 Ry

[...]

     total energy              =   -2354.08405729 Ry
     Harris-Foulkes estimate   =   -2354.08405740 Ry
     estimated scf accuracy    <       0.00000026 Ry

     iteration # 12     ecut=    24.00 Ry     beta=0.70
     Davidson diagonalization with overlap
     ethr =  4.02E-11,  avg # of iterations =  4.0

     End of self-consistent calculation

          k = 0.0000 0.0000 0.0000 ( 13008 PWs)   bands (ev):

   -23.0619 -23.0614 -23.0608 -23.0605 -23.0361 -23.0360 -23.0357 -23.0357
   -22.2040 -22.2035 -22.2027 -22.2025 -22.2023 -22.2021 -22.2021 -22.2015
   -20.4644 -20.4644 -20.4634 -20.4633 -18.5984 -18.5972 -18.5969 -18.5962
   -17.8181 -17.8176 -17.8112 -17.8107 -16.9163 -16.9138 -16.9045 -16.9013
   -16.2408 -16.2404 -16.2325 -16.2313 -14.8435 -14.8357 -14.8321 -14.8273
   -14.5265 -14.5224 -14.5177 -14.5163 -14.4514 -14.4383 -14.4328 -14.4320
   -13.4760 -13.4636 -13.4625 -13.4584 -13.4556 -13.4527 -13.4483 -13.4454
   -12.8702 -12.8654 -12.8623 -12.8440 -12.6946 -12.6835 -12.6731 -12.6659
   -11.7538 -11.7512 -11.7059 -11.6568 -11.5790 -11.5704 -11.5614 -11.5424
   -11.3777 -11.3053 -11.2978 -11.2300 -11.1809 -11.1294 -11.1249 -11.1071
   -10.5295 -10.5289 -10.5272 -10.5262 -10.1152 -10.1110 -10.0866 -10.0741
    -9.6028  -9.5984  -9.5978  -9.5897  -9.2221  -9.2186  -9.2097  -9.1959
    -8.7610  -8.7381  -8.6861  -8.6738  -8.4403  -8.4273  -8.3782  -8.3592
    -7.7678  -7.7333  -7.7246  -7.7074  -7.4870  -7.4726  -7.4725  -7.4629
    -7.3659  -7.3530  -7.2990  -7.2800  -7.0135  -7.0017  -6.9215  -6.9161
    -6.4916  -6.4755  -6.4344  -6.4158  -6.3874  -6.3645  -6.2956  -6.2764
    -6.2659  -6.2468  -6.1650  -6.1641  -5.9486  -5.9183  -5.9150  -5.9065
    -5.8989  -5.8756  -5.8578  -5.8539  -5.6320  -5.6265  -5.6180  -5.6078
    -5.5970  -5.5396  -5.5144  -5.4741  -5.3207  -5.2558  -5.2272  -5.2176
    -5.1627  -5.1376  -5.0831  -5.0787  -5.0700  -5.0679  -5.0546  -5.0508
    -4.9841  -4.9646  -4.9504  -4.9307  -4.8962  -4.8142  -4.7782  -4.7607
    -4.7585  -4.7466  -4.6827  -4.6770  -4.6738  -4.6550  -4.6483  -4.6454
    -4.6234  -4.5722  -4.5387  -4.5061  -4.4130  -4.3685  -4.3358  -4.2742
    -4.2299  -4.2267  -4.2221  -4.2103  -4.1856  -4.1707  -4.1485  -4.0946
    -4.0879  -4.0728  -4.0524  -3.9998  -3.9649  -3.9575  -3.9303  -3.8910
    -3.8272  -3.8131  -3.7989  -3.7641  -3.7572  -3.6703  -3.6497  -3.6304
    -3.6291  -3.5876  -3.5862  -3.5765  -3.3764  -3.3046  -3.2833  -3.2683
    -3.2672  -3.2566  -3.2515  -3.2511  -3.2309  -3.2204  -3.2160  -3.1924
    -3.1521  -3.1520  -3.1311  -3.1172  -3.0716  -3.0528  -2.9969  -2.9825
    -2.7199  -2.7183  -2.6974  -2.6949  -2.6374  -2.6330  -2.6224  -2.6180
    -2.6128  -2.6059  -2.5626  -2.5522  -2.5313  -2.5258  -2.4948  -2.4698
    -2.3082  -2.2962  -2.2946  -2.2816  -2.2663  -2.2390  -2.2373  -2.2226
    -2.2187  -2.2062  -2.2058  -2.2053  -2.1217  -2.0731  -2.0246  -2.0244
    -2.0145  -2.0133  -2.0059  -1.9752  -1.9151  -1.8813  -1.8672  -1.8648
    -1.8580  -1.8173  -1.8166  -1.8162  -1.8076  -1.7921  -1.7700  -1.7652
    -1.5613  -1.5206  -1.4734  -1.4647  -1.4580  -1.4559  -1.4232  -1.3942
    -1.3729  -1.3524  -1.3517  -1.3334  -1.1452  -1.1424  -1.0875  -1.0822
    -0.4927  -0.4751  -0.4730  -0.4343   0.0993   0.1254   0.1472   0.1594
     0.3044   0.3729   0.3854   0.3957   0.5304   0.5720   0.5821   0.5832
     0.6178   0.6309   0.6407   0.6555   0.6558   0.6837   0.7133   0.7439
     1.6268   1.6292   1.6471   1.6680

     highest occupied level (ev):     1.6680

!    total energy              =   -2354.08405729 Ry
     Harris-Foulkes estimate   =   -2354.08405737 Ry
     estimated scf accuracy    <       0.00000009 Ry

     The total energy is the sum of the following terms:

     one-electron contribution =   -2044.53337322 Ry
     hartree contribution      =    1267.41497904 Ry
     xc contribution           =    -653.15597303 Ry
     ewald contribution        =    -881.53888754 Ry
     one-center paw contrib.   =     -42.27080254 Ry

     convergence has been achieved in  12 iterations

     Forces acting on atoms (Ry/au):

     atom    1 type  3   force =     0.01095258    0.02266680    0.02439982
     atom    2 type  3   force =    -0.01095258   -0.02266680    0.02439982
     atom    3 type  3   force =    -0.01095258    0.02266680   -0.02439982
     atom    4 type  3   force =     0.01095258   -0.02266680   -0.02439982
     atom    5 type  3   force =    -0.01095258   -0.02266680   -0.02439982
     atom    6 type  3   force =     0.01095258    0.02266680   -0.02439982
     atom    7 type  3   force =     0.01095258   -0.02266680    0.02439982
     atom    8 type  3   force =    -0.01095258    0.02266680    0.02439982
     atom    9 type  3   force =    -0.01978496    0.01063559   -0.03675819
     atom   10 type  3   force =     0.01978496   -0.01063559   -0.03675819
     atom   11 type  3   force =     0.01978496    0.01063559    0.03675819
     atom   12 type  3   force =    -0.01978496   -0.01063559    0.03675819
     atom   13 type  3   force =     0.01978496   -0.01063559    0.03675819
     atom   14 type  3   force =    -0.01978496    0.01063559    0.03675819
     atom   15 type  3   force =    -0.01978496   -0.01063559   -0.03675819
     atom   16 type  3   force =     0.01978496    0.01063559   -0.03675819
     atom   17 type  5   force =    -0.01279242   -0.00154529    0.00461253
     atom   18 type  5   force =     0.01279242    0.00154529    0.00461253
     atom   19 type  5   force =     0.01279242   -0.00154529   -0.00461253
     atom   20 type  5   force =    -0.01279242    0.00154529   -0.00461253
     atom   21 type  5   force =     0.01279242    0.00154529   -0.00461253
     atom   22 type  5   force =    -0.01279242   -0.00154529   -0.00461253
     atom   23 type  5   force =    -0.01279242    0.00154529    0.00461253
     atom   24 type  5   force =     0.01279242   -0.00154529    0.00461253
     atom   25 type  5   force =     0.00452309    0.01206933   -0.00315018
     atom   26 type  5   force =    -0.00452309   -0.01206933   -0.00315018
     atom   27 type  5   force =    -0.00452309    0.01206933    0.00315018
     atom   28 type  5   force =     0.00452309   -0.01206933    0.00315018
     atom   29 type  5   force =    -0.00452309   -0.01206933    0.00315018
     atom   30 type  5   force =     0.00452309    0.01206933    0.00315018
     atom   31 type  5   force =     0.00452309   -0.01206933   -0.00315018
     atom   32 type  5   force =    -0.00452309    0.01206933   -0.00315018
     atom   33 type  5   force =    -0.03147017   -0.00384668    0.01571711
     atom   34 type  5   force =     0.03147017    0.00384668    0.01571711
     atom   35 type  5   force =     0.03147017   -0.00384668   -0.01571711
     atom   36 type  5   force =    -0.03147017    0.00384668   -0.01571711
     atom   37 type  5   force =     0.03147017    0.00384668   -0.01571711
     atom   38 type  5   force =    -0.03147017   -0.00384668   -0.01571711
     atom   39 type  5   force =    -0.03147017    0.00384668    0.01571711
     atom   40 type  5   force =     0.03147017   -0.00384668    0.01571711
     atom   41 type  1   force =     0.00928865   -0.03187570    0.01359384
     atom   42 type  1   force =    -0.00928865    0.03187570    0.01359384
     atom   43 type  1   force =    -0.00928865   -0.03187570   -0.01359384
     atom   44 type  1   force =     0.00928865    0.03187570   -0.01359384
     atom   45 type  1   force =    -0.00928865    0.03187570   -0.01359384
     atom   46 type  1   force =     0.00928865   -0.03187570   -0.01359384
     atom   47 type  1   force =     0.00928865    0.03187570    0.01359384
     atom   48 type  1   force =    -0.00928865   -0.03187570    0.01359384
     atom   49 type  2   force =    -0.00582772   -0.23222096    0.08963806
     atom   50 type  2   force =     0.00582772    0.23222096    0.08963806
     atom   51 type  2   force =     0.00582772   -0.23222096   -0.08963806
     atom   52 type  2   force =    -0.00582772    0.23222096   -0.08963806
     atom   53 type  2   force =     0.00582772    0.23222096   -0.08963806
     atom   54 type  2   force =    -0.00582772   -0.23222096   -0.08963806
     atom   55 type  2   force =    -0.00582772    0.23222096    0.08963806
     atom   56 type  2   force =     0.00582772   -0.23222096    0.08963806
     atom   57 type  4   force =    -0.19212492    0.04100541   -0.16735317
     atom   58 type  4   force =     0.19212492   -0.04100541   -0.16735317
     atom   59 type  4   force =     0.19212492    0.04100541    0.16735317
     atom   60 type  4   force =    -0.19212492   -0.04100541    0.16735317
[...]
     atom  186 type  2   force =    -0.02288934    0.01014282   -0.00909942
     atom  187 type  2   force =    -0.02288934   -0.01014282    0.00909942
     atom  188 type  2   force =     0.02288934    0.01014282    0.00909942
     atom  189 type  2   force =    -0.02288934    0.01014282    0.00909942
     atom  190 type  2   force =     0.02288934   -0.01014282    0.00909942
     atom  191 type  2   force =     0.02288934    0.01014282   -0.00909942
     atom  192 type  2   force =    -0.02288934   -0.01014282   -0.00909942
     atom  193 type  2   force =    -0.01121725    0.01530474   -0.00206512
     atom  194 type  2   force =     0.01121725   -0.01530474   -0.00206512
     atom  195 type  2   force =     0.01121725    0.01530474    0.00206512
     atom  196 type  2   force =    -0.01121725   -0.01530474    0.00206512
     atom  197 type  2   force =     0.01121725   -0.01530474    0.00206512
     atom  198 type  2   force =    -0.01121725    0.01530474    0.00206512
     atom  199 type  2   force =    -0.01121725   -0.01530474   -0.00206512
     atom  200 type  2   force =     0.01121725    0.01530474   -0.00206512

     Total force =     3.077100     Total SCF correction =     0.000974

     BFGS Geometry Optimization

     number of scf cycles    =   1
     number of bfgs steps    =   0

     energy   new            =   -2354.0840572889 Ry

     new trust radius        =       0.3431767748 bohr
     new conv_thr            =       0.0000001000 Ry

ATOMIC_POSITIONS (crystal)
F        0.113728839   0.185736192   0.008144798
F        0.386271161   0.814263808   0.508144798
F        0.886271161   0.685736192   0.491855202
F        0.613728839   0.314263808   0.991855202
F        0.886271161   0.814263808   0.991855202
F        0.613728839   0.185736192   0.491855202
F        0.113728839   0.314263808   0.508144798
F        0.386271161   0.685736192   0.008144798
F        0.996583733   0.149302969   0.878732381
F        0.503416267   0.850697031   0.378732381
F        0.003416267   0.649302969   0.621267619
F        0.496583733   0.350697031   0.121267619
F        0.003416267   0.850697031   0.121267619
F        0.496583733   0.149302969   0.621267619
F        0.996583733   0.350697031   0.378732381
F        0.503416267   0.649302969   0.878732381
N        0.364107129   0.151894357   0.866237810
N        0.135892871   0.848105643   0.366237810
N        0.635892871   0.651894357   0.633762190
N        0.864107129   0.348105643   0.133762190
N        0.635892871   0.848105643   0.133762190
N        0.864107129   0.151894357   0.633762190
N        0.364107129   0.348105643   0.366237810
N        0.135892871   0.651894357   0.866237810
N        0.207120340   0.047204596   0.933252222
N        0.292879660   0.952795404   0.433252222
N        0.792879660   0.547204596   0.566747778
N        0.707120340   0.452795404   0.066747778
N        0.792879660   0.952795404   0.066747778
N        0.707120340   0.047204596   0.566747778
N        0.207120340   0.452795404   0.433252222
N        0.292879660   0.547204596   0.933252222
N        0.033439486   0.956651488   0.000757734
N        0.466560514   0.043348512   0.500757734
N        0.966560514   0.456651488   0.499242266
N        0.533439486   0.543348512   0.999242266
N        0.966560514   0.043348512   0.999242266
N        0.533439486   0.956651488   0.499242266
N        0.033439486   0.543348512   0.500757734
N        0.466560514   0.456651488   0.000757734
B        0.069875708   0.114512212   0.952935090
B        0.430124292   0.885487788   0.452935090
B        0.930124292   0.614512212   0.547064910
B        0.569875708   0.385487788   0.047064910
B        0.930124292   0.885487788   0.047064910
B        0.569875708   0.114512212   0.547064910
B        0.069875708   0.385487788   0.452935090
B        0.430124292   0.614512212   0.952935090
C        0.513738799   0.258848130   0.795216814
C        0.986261201   0.741151870   0.295216814
C        0.486261201   0.758848130   0.704783186
C        0.013738799   0.241151870   0.204783186
C        0.486261201   0.741151870   0.204783186
C        0.013738799   0.258848130   0.704783186
C        0.513738799   0.241151870   0.295216814
C        0.986261201   0.758848130   0.795216814
H        0.419092138   0.279876533   0.745974295
H        0.080907862   0.720123467   0.245974295
H        0.580907862   0.779876533   0.754025705
H        0.919092138   0.220123467   0.254025705
[...]
C        0.323941324   0.038735225   0.461758679
C        0.823941324   0.461264775   0.538241321
C        0.676058676   0.538735225   0.038241321
C        0.823941324   0.038735225   0.038241321
C        0.676058676   0.961264775   0.538241321
C        0.176058676   0.538735225   0.461758679
C        0.323941324   0.461264775   0.961758679
C        0.347734757   0.066131097   0.893519345
C        0.152265243   0.933868903   0.393519345
C        0.652265243   0.566131097   0.606480655
C        0.847734757   0.433868903   0.106480655
C        0.652265243   0.933868903   0.106480655
C        0.847734757   0.066131097   0.606480655
C        0.347734757   0.433868903   0.393519345
C        0.152265243   0.566131097   0.893519345

     Writing output data file CO.save
     NEW-OLD atomic charge density approx. for the potential

     Check: negative/imaginary core charge=   -0.000010    0.000000

     Writing output data file CO.save

     General routines

     Parallel routines

   This run was terminated on:  20:28:36   6Jan2017

   JOB DONE.
STOP 3
+ tree ./tmp-cod2222222-93582
./tmp-cod2222222-93582
├── cod2222222.in
├── cod2222222.out
└── tmp-cod2222222-93582
    ├── CO.bfgs
    ├── CO.save
    │   ├── B.pbe-n-kjpaw_psl.0.1.UPF
    │   ├── charge-density.dat
    │   ├── charge-density.old.dat
    │   ├── C_pbe_v1.2.uspp.F.UPF
    │   ├── data-file.xml
    │   ├── f_pbe_v1.4.uspp.F.UPF
    │   ├── H.pbe-rrkjus_psl.0.1.UPF
    │   ├── K00001
    │   │   └── eigenval.xml
    │   ├── N.pbe.theos.UPF
    │   ├── O.pbe-n-kjpaw_psl.0.1.UPF
    │   └── paw.txt
    ├── CO.update
    └── CO.wfc1

3 directories, 16 files
++ basename ./outputs/cod2222222.out
+ mv ./tmp-cod2222222-93582/cod2222222.out ./outputs/cod2222222.out
+ rm -rf ./tmp-cod2222222-93582